N = 12;
H = 5;
T = 2;

avail = array3d(1..N, 1..H, 1..T, [10, 7, 1, 3, 7, 8, 9, 1, 4, 3, 10, 3, 3, 1, 0, 6, 1, 1, 9, 8, 4, 7, 5, 3, 8, 7, 1, 10, 0, 7, 4, 9, 7, 8, 1, 4, 5, 8, 4, 1, 7, 1, 6, 0, 8, 2, 9, 4, 3, 2, 10, 6, 1, 2, 5, 2, 6, 3, 10, 9, 5, 5, 0, 7, 4, 7, 0, 10, 0, 6, 5, 8, 0, 9, 4, 0, 5, 7, 1, 6, 9, 6, 3, 0, 0, 7, 6, 7, 4, 10, 4, 10, 6, 10, 5, 0, 1, 4, 6, 0, 7, 1, 8, 8, 5, 0, 0, 7, 9, 0, 6, 7, 1, 6, 0, 2, 8, 3, 5, 7]);

r = array2d(1..H, 1..T, [3, 1, 6, 1, 2, 5, 5, 2, 2, 7]);
